p cnf 25 64
a 12 13 0
e 1 2 3 4 5 6 7 8 9 10 11 14 15 16 17 18 19 20 21 22 23 24 25 0
-2 -3 -4 0
2 3 -4 0
-2 3 4 0
2 -3 4 0
5 4 0
5 3 0
-4 -3 -5 0
-6 1 0
-6 -5 0
-1 5 6 0
-9 -7 0
-9 -8 0
7 8 9 0
-1 9 -10 0
1 -9 -10 0
-1 -9 10 0
1 9 10 0
6 10 -11 0
-6 -10 -11 0
6 -10 11 0
-6 10 11 0
12 -8 0
12 9 0
8 -9 -12 0
-14 -13 0
-14 -2 0
13 2 14 0
14 5 -15 0
-14 -5 -15 0
14 -5 15 0
-14 5 15 0
-16 13 0
-16 -13 0
18 -3 0
18 -17 0
3 17 -18 0
4 18 -19 0
-4 -18 -19 0
4 -18 19 0
-4 18 19 0
21 19 0
21 -20 0
-19 20 -21 0
16 -21 -22 0
-16 21 -22 0
16 21 22 0
-16 -21 22 0
23 15 0
23 22 0
-15 -22 -23 0
-12 -23 -24 0
12 23 -24 0
-12 23 24 0
12 -23 24 0
-25 11 0
-25 24 0
-11 -24 25 0
-19 4 -11 24 -1 13 -3 0
4 -16 3 -21 -8 0
10 25 3 -6 0
-20 19 8 9 -21 11 0
20 -6 -8 -17 -1 5 0
-1 -21 16 2 -23 0
25 0
